10J3M/DAT/10J3MUTR-20.dat
10 3
18.7386 6.4923
34.8649 32.3638
36.149 36.3577
32.6932 35.7629
47.2271 20.3958
48.4784 4.8462
24.7016 15.0083
34.5953 24.53
46.5796 49.6264
35.0714 35.7304
65.2784