10J3M/SOL/10J3MUTR-20.sol
solution status: optimal solution found
objective value:                     76.3507781977856
x#1#1                               0.196910453243695 	(obj:0)
x#1#2                               0.147173428626129 	(obj:0)
x#1#3                               0.655916118130177 	(obj:0)
x#2#1                               0.415797641373524 	(obj:0)
x#3#1                                               1 	(obj:0)
x#4#2                                               1 	(obj:0)
x#5#2                               0.254634078368048 	(obj:0)
x#5#3                               0.745365921631952 	(obj:0)
x#6#1                                               1 	(obj:0)
x#7#1                               0.173234126759365 	(obj:0)
x#7#3                               0.826765873240635 	(obj:0)
x#9#1                                               1 	(obj:0)
x#10#2                                              1 	(obj:0)
z                                    76.3507781977856 	(obj:1)
